NAME: random96
TYPE: TSP
DIMENSION: 96
EDGE_WEIGHT_TYPE: EXPLICIT
EDGE_WEIGHT_FORMAT: FULL_MATRIX
EDGE_WEIGHT_SECTION
0 127 127 127 127 127 127 127 127 127 44 127 127 32 8 127 127 127 127 127 30 127 127 127 127 127 5 65 127 127 22 127 8 127 8 27 17 127 127 14 19 127 127 127 127 127 6 127 127 23 127 127 127 127 127 22 127 127 127 24 127 127 52 127 127 13 127 127 21 127 127 127 127 127 127 40 12 127 127 127 127 127 127 127 127 127 127 127 127 127 127 127 127 127 40 26
127 0 127 127 127 127 127 127 127 9 17 24 127 127 127 127 127 27 127 127 127 127 22 127 127 18 127 10 127 127 127 127 63 127 127 127 127 127 127 127 127 127 127 127 127 127 127 8 127 127 127 14 127 127 127 127 127 127 127 127 127 127 12 127 26 127 127 127 127 127 127 127 127 127 127 20 127 25 127 127 17 127 127 127 127 22 127 127 127 127 127 127 127 127 22 127
127 127 0 127 16 127 27 127 127 127 127 127 17 127 127 127 127 127 20 26 127 127 127 127 127 127 127 127 127 127 127 15 127 127 127 127 127 22 67 127 127 127 127 25 127 127 127 127 127 127 18 127 34 31 127 127 127 13 127 127 127 127 127 21 127 127 127 127 127 127 127 23 127 127 41 127 127 127 21 127 127 127 30 28 127 127 127 127 22 127 28 127 127 6 127 127
127 127 127 0 127 127 127 127 17 127 127 127 127 127 43 127 20 127 127 127 11 127 127 127 127 127 127 127 127 127 26 127 127 127 127 127 20 127 127 127 19 127 34 127 49 31 127 127 127 14 127 127 127 127 127 17 127 127 127 127 127 127 127 127 127 127 9 127 127 43 127 127 26 127 39 127 127 127 127 127 127 127 127 127 127 127 127 14 127 5 127 127 127 127 127 127
127 127 16 127 0 127 27 29 127 127 127 127 26 127 127 127 127 127 35 18 127 127 127 127 127 127 127 127 127 127 127 21 127 25 127 127 127 127 53 127 127 127 127 38 31 127 127 127 127 127 29 127 127 20 127 127 127 3 127 127 127 20 127 127 127 127 127 127 127 56 127 38 127 127 127 127 127 127 6 127 127 127 127 127 127 127 127 127 127 127 127 127 26 20 127 127
127 127 127 127 127 0 18 15 31 127 127 127 127 127 127 127 16 127 127 17 127 3 127 127 127 127 127 127 3 7 127 30 127 12 127 127 127 127 127 127 127 127 9 127 127 7 127 127 127 127 127 127 8 127 127 127 16 127 6 127 10 127 127 127 127 127 127 127 127 127 127 127 127 2 22 127 127 127 127 127 127 127 127 127 127 127 127 127 127 127 127 127 127 127 127 127
127 127 27 127 27 18 0 26 127 127 127 127 127 127 127 26 29 127 31 14 127 19 127 127 127 127 127 127 21 19 127 13 127 19 127 127 127 30 127 127 127 29 27 127 127 19 127 127 25 127 127 127 14 21 127 127 12 26 127 127 12 23 127 15 127 127 127 127 127 127 127 127 33 19 16 127 127 127 26 127 127 127 26 127 127 127 27 36 127 127 40 127 127 33 127 127
127 127 127 127 29 15 26 0 37 127 127 127 127 127 127 127 30 127 127 15 58 12 127 127 127 127 127 127 13 9 127 127 127 7 127 127 127 127 29 127 127 127 13 127 6 22 127 127 127 127 127 127 13 9 127 127 127 127 12 127 127 9 127 127 127 127 127 127 127 28 127 127 127 13 127 127 127 127 23 127 127 127 127 127 127 127 127 127 127 127 127 127 5 127 127 127
127 127 127 17 127 31 127 37 0 127 127 127 127 127 127 46 22 127 127 127 27 127 127 127 127 127 127 127 29 127 41 127 127 127 127 127 127 127 37 127 36 127 25 127 37 30 127 127 127 31 127 127 127 127 127 34 41 127 28 127 37 127 127 127 127 127 25 127 127 26 127 127 37 127 44 127 127 127 127 127 127 127 127 127 127 127 127 20 127 21 127 127 41 127 127 127
127 9 127 127 127 127 127 127 127 0 14 15 127 22 127 127 127 23 127 127 127 127 16 127 127 20 127 18 127 127 127 127 57 127 127 127 127 127 127 40 127 127 127 127 127 127 127 15 127 127 127 19 127 127 127 127 127 127 127 127 127 127 13 127 19 127 127 127 127 127 127 127 127 127 127 14 127 28 127 127 12 29 127 127 127 14 127 127 127 127 127 26 127 127 17 127
44 17 127 127 127 127 127 127 127 14 0 22 127 13 127 127 127 127 127 127 127 127 29 127 127 127 127 21 127 127 127 127 46 127 127 127 127 127 127 30 127 127 127 127 127 127 127 18 127 127 127 31 127 127 127 127 127 127 127 127 127 127 8 127 14 127 127 127 127 127 127 127 127 127 127 6 127 127 127 127 25 26 127 127 127 21 127 127 127 127 127 127 127 127 5 28
127 24 127 127 127 127 127 127 127 15 22 0 127 21 127 26 127 21 127 127 127 127 11 127 127 29 127 127 127 127 127 127 127 127 127 21 127 127 127 33 127 20 127 127 127 127 127 127 22 127 127 127 127 127 127 127 127 127 127 24 127 127 127 43 15 127 127 127 28 127 31 127 33 127 33 18 127 127 127 24 12 19 34 127 31 1 20 127 127 127 127 15 127 127 22 21
127 127 17 127 26 127 127 127 127 127 127 127 0 127 127 127 127 127 28 42 127 127 127 127 127 127 127 127 127 127 127 31 127 127 127 127 127 127 79 127 127 127 127 13 58 127 127 127 127 127 4 127 127 45 23 127 127 25 127 127 127 46 127 127 127 127 127 127 127 127 127 22 127 127 127 127 127 127 33 127 127 127 127 30 127 127 127 127 23 127 127 127 53 11 127 127
32 127 127 127 127 127 127 127 127 22 13 21 127 0 36 127 127 127 127 127 127 127 31 127 127 127 127 33 127 127 127 127 35 127 127 21 127 127 127 18 127 127 127 127 127 127 27 127 127 127 127 127 127 127 127 127 127 127 127 20 127 127 21 127 6 127 127 127 24 127 127 127 127 127 127 9 127 127 127 127 30 15 127 127 127 20 36 127 127 127 127 127 127 127 8 16
8 127 127 43 127 127 127 127 127 127 127 127 127 36 0 127 127 127 127 127 35 127 127 127 127 127 13 127 127 127 127 127 1 127 16 127 23 127 127 19 25 127 127 127 127 127 14 127 127 29 127 127 127 127 127 30 127 127 127 127 127 127 55 127 127 19 36 127 29 127 127 127 127 127 127 127 19 127 127 127 127 127 127 127 127 127 127 127 127 41 127 127 127 127 43 127
127 127 127 127 127 127 26 127 46 127 127 26 127 127 127 0 25 127 127 127 127 127 31 127 127 127 127 127 127 127 23 35 127 127 127 19 127 127 127 127 127 20 127 127 127 24 127 127 8 127 127 127 127 127 127 29 16 127 127 22 127 127 127 30 32 127 127 127 23 127 19 127 13 127 10 127 127 127 127 34 127 23 31 127 127 127 9 27 127 127 127 22 127 127 127 23
127 127 127 20 127 16 29 30 22 127 127 127 127 127 127 25 0 127 127 127 31 19 127 127 127 127 127 127 17 127 28 42 127 127 41 35 127 127 46 127 127 127 18 127 33 11 127 127 32 30 127 127 24 127 127 26 20 127 18 127 17 127 127 43 127 127 28 127 127 38 27 127 18 18 22 127 127 127 127 127 127 127 127 127 127 127 33 7 127 18 127 127 127 127 127 127
127 27 127 127 127 127 127 127 127 23 127 21 127 127 127 127 127 0 127 127 127 127 10 33 22 17 127 36 127 127 127 127 127 127 127 41 127 127 127 127 127 18 127 127 127 127 127 127 29 127 127 22 127 127 46 127 127 127 127 127 127 127 127 36 35 127 127 24 127 127 127 127 127 127 127 35 127 19 127 7 12 127 24 35 10 21 28 127 127 127 127 15 127 127 127 127
127 127 20 127 35 127 31 127 127 127 127 127 28 127 127 127 127 127 0 39 127 127 127 15 16 127 127 127 127 127 127 20 127 127 127 127 127 3 127 127 127 31 127 25 127 127 127 127 38 127 26 127 44 127 17 127 40 32 127 127 127 127 127 17 127 127 127 14 127 127 127 11 127 127 39 127 127 127 39 29 127 127 15 10 127 127 127 127 8 127 9 127 127 20 127 127
127 127 26 127 18 17 14 15 127 127 127 127 42 127 127 127 127 127 39 0 127 15 127 127 127 127 127 127 127 12 127 19 127 8 127 127 127 39 43 127 127 127 127 127 127 22 127 127 39 127 127 127 9 7 127 127 23 18 20 127 19 9 127 25 127 127 127 127 127 127 127 127 127 127 28 127 127 127 14 127 127 127 127 127 127 127 127 127 127 127 127 127 16 32 127 127
30 127 127 11 127 127 127 58 27 127 127 127 127 127 35 127 31 127 127 127 0 127 127 127 127 127 127 127 127 127 127 127 36 127 127 127 13 127 64 127 11 127 45 127 60 42 127 127 127 8 127 127 127 127 127 17 127 127 127 127 127 127 127 127 127 17 3 127 127 53 127 127 31 127 127 127 18 127 127 127 127 127 127 127 127 127 127 24 127 13 127 127 127 127 127 127
127 127 127 127 127 3 19 12 127 127 127 127 127 127 127 127 19 127 127 15 127 0 127 127 127 127 127 127 3 4 127 127 127 9 127 127 127 127 127 127 127 127 8 127 17 10 127 127 127 127 127 127 6 15 127 127 19 127 5 127 13 16 127 127 127 127 127 127 127 127 127 127 127 2 127 127 127 127 127 127 127 127 127 127 127 127 127 127 127 127 127 127 127 127 127 127
127 22 127 127 127 127 127 127 127 16 29 11 127 31 127 31 127 10 127 127 127 127 0 127 30 20 127 127 127 127 127 127 127 127 127 32 127 127 127 127 127 17 127 127 127 127 127 127 25 127 127 23 127 127 127 127 127 127 127 127 127 127 29 127 25 127 127 127 127 127 127 127 127 127 127 26 127 25 127 14 5 30 28 127 19 11 23 127 127 127 127 12 127 127 127 127
127 127 127 127 127 127 127 127 127 127 127 127 127 127 127 127 127 33 15 127 127 127 127 0 12 43 127 127 127 127 127 127 127 127 127 127 127 15 127 127 127 37 127 26 127 127 127 127 127 127 33 50 127 127 14 127 127 127 127 127 127 127 127 31 127 127 127 10 127 127 127 13 127 127 127 127 127 39 127 28 45 127 24 6 25 127 127 127 13 127 6 39 127 32 127 127
127 127 127 127 127 127 127 127 127 127 127 127 127 127 127 127 127 22 16 127 127 127 30 12 0 34 127 127 127 127 127 127 127 127 127 127 127 14 127 127 127 25 127 127 127 127 127 127 36 127 127 127 127 127 24 127 127 127 127 127 127 127 127 25 127 127 127 2 127 127 127 127 127 127 127 127 127 31 127 16 127 127 15 14 15 127 36 127 20 127 12 27 127 127 127 127
127 18 127 127 127 127 127 127 127 20 127 29 127 127 127 127 127 17 127 127 127 127 20 43 34 0 127 24 127 127 127 127 127 127 127 127 127 127 127 127 127 127 127 127 127 127 127 23 127 127 127 6 127 127 57 127 127 127 127 127 127 127 29 127 127 127 127 127 127 127 127 127 127 127 127 127 127 8 127 23 17 127 127 127 19 28 127 127 127 127 127 30 127 127 127 127
5 127 127 127 127 127 127 127 127 127 127 127 127 127 13 127 127 127 127 127 127 127 127 127 127 127 0 127 127 127 17 127 13 127 4 127 13 127 127 15 15 127 127 127 127 127 5 127 127 19 127 127 127 127 127 17 127 127 127 21 127 127 127 127 127 9 127 127 18 127 21 127 30 127 127 127 8 127 127 127 127 127 127 127 127 127 127 127 127 127 127 127 127 127 40 127
65 10 127 127 127 127 127 127 127 18 21 127 127 33 127 127 127 36 127 127 127 127 127 127 127 24 127 0 127 127 127 127 66 127 127 127 127 127 127 51 127 127 127 127 127 127 127 3 127 127 127 18 127 127 127 127 127 127 127 127 127 127 13 127 127 127 127 127 127 127 127 127 127 127 127 25 127 31 127 127 28 127 127 127 42 32 127 127 127 127 127 127 127 127 25 127
127 127 127 127 127 3 21 13 29 127 127 127 127 127 127 127 17 127 127 127 127 3 127 127 127 127 127 127 0 6 127 127 127 12 127 127 127 127 127 127 127 127 6 127 18 9 127 127 127 127 127 127 9 127 127 127 19 127 3 127 13 127 127 127 127 127 127 127 127 31 127 127 127 2 25 127 127 127 127 127 127 127 127 127 127 127 127 23 127 127 127 127 18 127 127 127
127 127 127 127 127 7 19 9 127 127 127 127 127 127 127 127 127 127 127 12 127 4 127 127 127 127 127 127 6 0 127 29 127 5 127 127 127 127 127 127 127 127 10 127 14 14 127 127 127 127 127 127 5 11 127 127 127 127 7 127 15 12 127 127 127 127 127 127 127 33 127 127 127 5 127 127 127 127 24 127 127 127 127 127 127 127 127 127 127 127 127 127 13 127 127 127
22 127 127 26 127 127 127 127 41 127 127 127 127 127 127 23 28 127 127 127 127 127 127 127 127 127 17 127 127 127 0 127 127 127 14 13 17 127 127 20 127 127 127 127 127 127 16 127 127 19 127 127 127 127 127 10 127 127 127 11 127 127 127 127 127 17 127 127 7 127 4 127 13 127 30 127 17 127 127 127 127 127 127 127 127 127 29 24 127 22 127 127 127 127 127 15
127 127 15 127 21 30 13 127 127 127 127 127 31 127 127 35 42 127 20 19 127 127 127 127 127 127 127 127 127 29 127 0 127 27 127 127 127 20 62 127 127 31 127 127 127 127 127 127 32 127 32 127 24 26 127 127 24 19 127 127 25 28 127 8 127 127 127 31 127 127 127 29 127 127 27 127 127 127 23 127 127 127 21 127 127 127 127 127 26 127 29 127 127 20 127 127
8 63 127 127 127 127 127 127 127 57 46 127 127 35 1 127 127 127 127 127 36 127 127 127 127 127 13 66 127 127 127 127 0 127 16 127 24 127 127 18 25 127 127 127 127 127 14 64 127 127 127 76 127 127 127 127 127 127 127 31 127 127 54 127 39 20 127 127 28 127 127 127 127 127 127 43 19 127 127 127 127 34 127 127 127 127 127 127 127 127 127 127 127 127 42 32
127 127 127 127 25 12 19 7 127 127 127 127 127 127 127 127 127 127 127 8 127 9 127 127 127 127 127 127 12 5 127 27 127 0 127 127 127 127 36 127 127 127 15 127 13 127 127 127 127 127 127 127 6 6 127 127 24 25 12 127 18 7 127 32 127 127 127 127 127 127 127 127 127 10 127 127 127 127 19 127 127 127 127 127 127 127 127 127 127 127 127 127 10 127 127 127
8 127 127 127 127 127 127 127 127 127 127 127 127 127 16 127 41 127 127 127 127 127 127 127 127 127 4 127 127 127 14 127 16 127 0 21 14 127 127 12 17 127 127 127 127 127 3 127 127 20 127 127 127 127 127 16 127 127 127 17 127 127 127 127 127 11 127 127 14 127 17 127 27 127 127 127 10 127 127 127 127 127 127 127 127 127 127 35 127 29 127 127 127 127 127 20
27 127 127 127 127 127 127 127 127 127 127 21 127 21 127 19 35 41 127 127 127 127 32 127 127 127 127 127 127 127 13 127 127 127 21 0 127 127 127 19 127 31 127 127 127 127 21 127 22 127 127 127 127 127 127 23 34 127 127 4 127 127 127 48 18 127 127 127 7 127 10 127 17 127 28 26 127 127 127 42 127 6 127 127 127 22 21 33 127 127 127 29 127 127 28 5
17 127 127 20 127 127 127 127 127 127 127 127 127 127 23 127 127 127 127 127 13 127 127 127 127 127 13 127 127 127 17 127 24 127 14 127 0 127 127 127 3 127 127 127 127 127 17 127 127 6 127 127 127 127 127 10 127 127 127 127 127 127 127 127 127 4 14 127 22 127 127 127 26 127 127 127 5 127 127 127 127 127 127 127 127 127 127 27 127 18 127 127 127 127 127 127
127 127 22 127 127 127 30 127 127 127 127 127 127 127 127 127 127 127 3 39 127 127 127 15 14 127 127 127 127 127 127 20 127 127 127 127 127 0 127 127 127 28 127 127 127 127 127 127 36 127 127 127 127 127 19 127 127 34 127 127 127 127 127 15 127 127 127 12 127 127 127 14 127 127 37 127 127 127 127 26 127 127 13 11 28 127 36 127 11 127 10 32 127 22 127 127
127 127 67 127 53 127 127 29 37 127 127 127 79 127 127 127 46 127 127 43 64 127 127 127 127 127 127 127 127 127 127 62 127 36 127 127 127 127 0 127 127 127 31 127 23 127 127 127 127 127 82 127 127 37 127 127 127 55 33 127 127 35 127 127 127 127 127 127 127 12 127 127 127 127 127 127 127 127 46 127 127 127 127 127 127 127 127 127 127 127 127 127 28 72 127 127
14 127 127 127 127 127 127 127 127 40 30 33 127 18 19 127 127 127 127 127 127 127 127 127 127 127 15 51 127 127 20 127 18 127 12 19 127 127 127 0 29 127 127 127 127 127 10 48 127 127 127 127 127 127 127 27 127 127 127 16 127 127 38 127 21 23 127 127 15 127 22 127 32 127 127 26 22 127 127 127 127 17 127 127 127 34 127 127 127 127 127 127 127 127 26 15
19 127 127 19 127 127 127 127 36 127 127 127 127 127 25 127 127 127 127 127 11 127 127 127 127 127 15 127 127 127 127 127 25 127 17 127 3 127 127 29 0 127 127 127 127 127 127 127 127 5 127 127 127 127 127 12 127 127 127 127 127 127 127 127 127 6 12 127 127 127 127 127 127 127 127 127 7 127 127 127 127 127 127 127 127 127 127 28 127 18 127 127 127 127 127 127
127 127 127 127 127 127 29 127 127 127 127 20 127 127 127 20 127 18 31 127 127 127 17 37 25 127 127 127 127 127 127 31 127 127 127 31 127 28 127 127 127 0 127 127 127 127 127 127 12 127 127 127 127 127 127 127 27 127 127 127 127 127 127 23 127 127 127 27 127 127 127 127 32 127 22 127 127 36 127 15 21 31 15 127 23 21 12 127 127 127 34 5 127 127 127 127
127 127 127 34 127 9 27 13 25 127 127 127 127 127 127 127 18 127 127 127 45 8 127 127 127 127 127 127 6 10 127 127 127 15 127 127 127 127 31 127 127 127 0 127 16 14 127 127 127 127 127 127 14 127 127 43 25 127 3 127 19 21 127 127 127 127 42 127 127 25 127 127 35 8 30 127 127 127 34 127 127 127 127 127 127 127 127 23 127 34 127 127 18 127 127 127
127 127 25 127 38 127 127 127 127 127 127 127 13 127 127 127 127 127 25 127 127 127 127 26 127 127 127 127 127 127 127 127 127 127 127 127 127 127 127 127 127 127 127 0 127 127 127 127 127 127 10 127 127 127 13 127 127 36 127 127 127 127 127 127 127 127 127 127 127 127 127 15 127 127 127 127 127 65 127 127 127 127 127 23 127 127 127 127 17 127 25 127 127 19 127 127
127 127 127 49 31 127 127 6 37 127 127 127 58 127 127 127 33 127 127 127 60 17 127 127 127 127 127 127 18 14 127 127 127 13 127 127 127 127 23 127 127 127 16 127 0 27 127 127 127 127 127 127 127 14 127 127 127 33 16 127 127 12 127 127 127 127 127 127 127 25 127 127 127 127 127 127 127 127 25 127 127 127 127 127 127 127 127 39 127 127 127 127 5 127 127 127
127 127 127 31 127 7 19 22 30 127 127 127 127 127 127 24 11 127 127 22 42 10 127 127 127 127 127 127 9 14 127 127 127 127 127 127 127 127 127 127 127 127 14 127 27 0 127 127 127 127 127 127 13 127 127 127 12 127 12 127 7 127 127 33 127 127 127 127 127 38 127 127 23 9 17 127 127 127 127 127 127 127 127 127 127 127 127 18 127 127 127 127 127 127 127 127
6 127 127 127 127 127 127 127 127 127 127 127 127 27 14 127 127 127 127 127 127 127 127 127 127 127 5 127 127 127 16 127 14 127 3 21 17 127 127 10 127 127 127 127 127 127 0 127 127 127 127 127 127 127 127 19 127 127 127 18 127 127 48 127 127 14 127 127 15 127 19 127 29 127 127 127 13 127 127 127 127 127 127 127 127 127 127 127 127 127 127 127 127 127 35 19
127 8 127 127 127 127 127 127 127 15 18 127 127 127 127 127 127 127 127 127 127 127 127 127 127 23 127 3 127 127 127 127 64 127 127 127 127 127 127 48 127 127 127 127 127 127 127 0 127 127 127 18 127 127 127 127 127 127 127 127 127 127 10 127 127 127 127 127 127 127 127 127 127 127 127 22 127 31 127 127 25 127 127 127 127 29 127 127 127 127 127 127 127 127 22 127
127 127 127 127 127 127 25 127 127 127 127 22 127 127 127 8 32 29 38 39 127 127 25 127 36 127 127 127 127 127 127 32 127 127 127 22 127 36 127 127 127 12 127 127 127 127 127 127 0 127 127 127 127 127 127 127 18 127 127 127 24 127 127 26 127 127 127 38 127 127 25 127 20 127 12 127 127 127 127 27 127 25 24 127 127 127 2 34 127 127 127 14 127 127 127 127
23 127 127 14 127 127 127 127 31 127 127 127 127 127 29 127 30 127 127 127 8 127 127 127 127 127 19 127 127 127 19 127 127 127 20 127 6 127 127 127 5 127 127 127 127 127 127 127 127 0 127 127 127 127 127 10 127 127 127 127 127 127 127 127 127 10 8 127 127 57 127 127 26 127 127 127 11 127 127 127 127 127 127 127 127 127 127 23 127 13 127 127 127 127 127 127
127 127 18 127 29 127 127 127 127 127 127 127 4 127 127 127 127 127 26 127 127 127 127 33 127 127 127 127 127 127 127 32 127 127 127 127 127 127 82 127 127 127 127 10 127 127 127 127 127 127 0 127 127 127 20 127 127 27 127 127 127 127 127 127 127 127 127 127 127 127 127 20 127 127 127 127 127 127 35 127 127 127 127 28 127 127 127 127 21 127 29 127 127 12 127 127
127 14 127 127 127 127 127 127 127 19 31 127 127 127 127 127 127 22 127 127 127 127 23 50 127 6 127 18 127 127 127 127 76 127 127 127 127 127 127 127 127 127 127 127 127 127 127 18 127 127 127 0 127 127 127 127 127 127 127 127 127 127 25 127 127 127 127 127 127 127 127 127 127 127 127 33 127 13 127 29 19 127 127 127 26 29 127 127 127 127 127 34 127 127 127 127
127 127 34 127 127 8 14 13 127 127 127 127 127 127 127 127 24 127 44 9 127 6 127 127 127 127 127 127 9 5 127 24 127 6 127 127 127 127 127 127 127 127 14 127 127 13 127 127 127 127 127 127 0 11 127 127 17 28 11 127 12 13 127 29 127 127 127 127 127 127 127 127 127 7 23 127 127 127 23 127 127 127 127 127 127 127 127 127 127 127 127 127 16 127 127 127
127 127 31 127 20 127 21 9 127 127 127 127 45 127 127 127 127 127 127 7 127 15 127 127 127 127 127 127 127 11 127 26 127 6 127 127 127 127 37 127 127 127 127 127 14 127 127 127 127 127 127 127 11 0 127 127 127 21 18 127 23 2 127 127 127 127 127 127 127 127 127 127 127 127 127 127 127 127 14 127 127 127 127 127 127 127 127 127 127 127 127 127 9 127 127 127
127 127 127 127 127 127 127 127 127 127 127 127 23 127 127 127 127 46 17 127 127 127 127 14 24 57 127 127 127 127 127 127 127 127 127 127 127 19 127 127 127 127 127 13 127 127 127 127 127 127 20 127 127 127 0 127 127 127 127 127 127 127 127 127 127 127 127 22 127 127 127 6 127 127 127 127 127 53 127 40 127 127 127 11 39 127 127 127 8 127 13 127 127 23 127 127
22 127 127 17 127 127 127 127 34 127 127 127 127 127 30 29 26 127 127 127 17 127 127 127 127 127 17 127 127 127 10 127 127 127 16 23 10 127 127 27 12 127 43 127 127 127 19 127 127 10 127 127 127 127 127 0 37 127 127 127 127 127 127 127 127 12 15 127 17 127 13 127 17 127 35 127 12 127 127 127 127 127 127 127 127 127 127 20 127 13 127 127 127 127 127 127
127 127 127 127 127 16 12 127 41 127 127 127 127 127 127 16 20 127 40 23 127 19 127 127 127 127 127 127 19 127 127 24 127 24 127 34 127 127 127 127 127 27 25 127 127 12 127 127 18 127 127 127 17 127 127 37 0 127 22 127 6 127 127 23 127 127 127 127 127 50 127 127 21 18 6 127 127 127 127 127 127 127 127 127 127 127 127 25 127 127 127 127 127 127 127 127
127 127 13 127 3 127 26 127 127 127 127 127 25 127 127 127 127 127 32 18 127 127 127 127 127 127 127 127 127 127 127 19 127 25 127 127 127 34 55 127 127 127 127 36 33 127 127 127 127 127 27 127 28 21 127 127 127 0 127 127 35 21 127 27 127 127 127 127 127 127 127 36 127 127 42 127 127 127 8 127 127 127 127 127 127 127 127 127 35 127 41 127 28 17 127 127
127 127 127 127 127 6 127 12 28 127 127 127 127 127 127 127 18 127 127 20 127 5 127 127 127 127 127 127 3 7 127 127 127 12 127 127 127 127 33 127 127 127 3 127 16 12 127 127 127 127 127 127 11 18 127 127 22 127 0 127 16 19 127 127 127 127 127 127 127 28 127 127 127 5 127 127 127 127 127 127 127 127 127 127 127 127 127 127 127 127 127 127 17 127 127 127
24 127 127 127 127 127 127 127 127 127 127 24 127 20 127 22 127 127 127 127 127 127 127 127 127 127 21 127 127 127 11 127 31 127 17 4 127 127 127 16 127 127 127 127 127 127 18 127 127 127 127 127 127 127 127 127 127 127 127 0 127 127 127 127 18 127 127 127 4 127 10 127 18 127 127 26 127 127 127 127 127 6 127 127 127 127 25 127 127 127 127 127 127 127 28 4
127 127 127 127 127 10 12 127 37 127 127 127 127 127 127 127 17 127 127 19 127 13 127 127 127 127 127 127 13 15 127 25 127 18 127 127 127 127 127 127 127 127 19 127 127 7 127 127 24 127 127 127 12 23 127 127 6 35 16 127 0 127 127 26 127 127 127 127 127 127 127 127 24 12 12 127 127 127 127 127 127 127 127 127 127 127 127 127 127 127 127 127 127 127 127 127
127 127 127 127 20 127 23 9 127 127 127 127 46 127 127 127 127 127 127 9 127 16 127 127 127 127 127 127 127 12 127 28 127 7 127 127 127 127 35 127 127 127 21 127 12 127 127 127 127 127 127 127 13 2 127 127 127 21 19 127 127 0 127 127 127 127 127 127 127 37 127 127 127 127 127 127 127 127 14 127 127 127 127 127 127 127 127 127 127 127 127 127 7 127 127 127
52 12 127 127 127 127 127 127 127 13 8 127 127 21 55 127 127 127 127 127 127 127 29 127 127 29 127 13 127 127 127 127 54 127 127 127 127 127 127 38 127 127 127 127 127 127 48 10 127 127 127 25 127 127 127 127 127 127 127 127 127 127 0 127 21 127 127 127 127 127 127 127 127 127 127 13 127 37 127 127 25 127 127 127 127 24 127 127 127 127 127 127 127 127 13 35
127 127 21 127 127 127 15 127 127 127 127 43 127 127 127 30 43 36 17 25 127 127 127 31 25 127 127 127 127 127 127 8 127 32 127 48 127 15 127 127 127 23 127 127 127 33 127 127 26 127 127 127 29 127 127 127 23 27 127 127 26 127 127 0 127 127 127 25 127 127 127 127 42 127 24 127 127 127 31 30 127 127 13 26 35 127 27 127 24 127 25 28 127 25 127 127
127 26 127 127 127 127 127 127 127 19 14 15 127 6 127 32 127 35 127 127 127 127 25 127 127 127 127 127 127 127 127 127 39 127 127 18 127 127 127 21 127 127 127 127 127 127 127 127 127 127 127 127 127 127 127 127 127 127 127 18 127 127 21 127 0 127 127 127 127 127 127 127 127 127 127 8 127 127 127 127 24 12 127 127 127 14 30 127 127 127 127 29 127 127 11 14
13 127 127 127 127 127 127 127 127 127 127 127 127 127 19 127 127 127 127 127 17 127 127 127 127 127 9 127 127 127 17 127 20 127 11 127 4 127 127 23 6 127 127 127 127 127 14 127 127 10 127 127 127 127 127 12 127 127 127 127 127 127 127 127 127 0 17 127 127 127 127 127 127 127 127 127 1 127 127 127 127 127 127 127 127 127 127 127 127 22 127 127 127 127 48 127
127 127 127 9 127 127 127 127 25 127 127 127 127 127 36 127 28 127 127 127 3 127 127 127 127 127 127 127 127 127 127 127 127 127 127 127 14 127 127 127 12 127 42 127 127 127 127 127 127 8 127 127 127 127 127 15 127 127 127 127 127 127 127 127 127 17 0 127 127 51 127 127 28 127 127 127 18 127 127 127 127 127 127 127 127 127 127 21 127 9 127 127 127 127 127 127
127 127 127 127 127 127 127 127 127 127 127 127 127 127 127 127 127 24 14 127 127 127 127 10 2 127 127 127 127 127 127 31 127 127 127 127 127 12 127 127 127 27 127 127 127 127 127 127 38 127 127 127 127 127 22 127 127 127 127 127 127 127 127 25 127 127 127 0 127 127 127 19 127 127 127 127 127 33 127 19 127 127 15 11 17 127 127 127 17 127 9 29 127 34 127 127
21 127 127 127 127 127 127 127 127 127 127 28 127 24 29 23 127 127 127 127 127 127 127 127 127 127 18 127 127 127 7 127 28 127 14 7 22 127 127 15 127 127 127 127 127 127 15 127 127 127 127 127 127 127 127 17 127 127 127 4 127 127 127 127 127 127 127 127 0 127 7 127 17 127 32 127 20 127 127 127 127 11 127 127 127 127 27 31 127 127 127 127 127 127 32 8
127 127 127 43 56 127 127 28 26 127 127 127 127 127 127 127 38 127 127 127 53 127 127 127 127 127 127 127 31 33 127 127 127 127 127 127 127 127 12 127 127 127 25 127 25 38 127 127 127 57 127 127 127 127 127 127 50 127 28 127 127 37 127 127 127 127 51 127 127 0 127 127 56 127 127 127 127 127 50 127 127 127 127 127 127 127 127 40 127 46 127 127 30 127 127 127
127 127 127 127 127 127 127 127 127 127 127 31 127 127 127 19 27 127 127 127 127 127 127 127 127 127 21 127 127 127 4 127 127 127 17 10 127 127 127 22 127 127 127 127 127 127 19 127 25 127 127 127 127 127 127 13 127 127 127 10 127 127 127 127 127 127 127 127 7 127 0 127 10 127 27 127 21 127 127 127 127 15 127 127 127 127 25 24 127 23 127 127 127 127 127 14
127 127 23 127 38 127 127 127 127 127 127 127 22 127 127 127 127 127 11 127 127 127 127 13 127 127 127 127 127 127 127 29 127 127 127 127 127 14 127 127 127 127 127 15 127 127 127 127 127 127 20 127 127 127 6 127 127 36 127 127 127 127 127 127 127 127 127 19 127 127 127 0 127 127 127 127 127 51 127 127 127 127 127 8 36 127 127 127 3 127 10 127 127 20 127 127
127 127 127 26 127 127 33 127 37 127 127 33 127 127 127 13 18 127 127 127 31 127 127 127 127 127 30 127 127 127 13 127 127 127 27 17 26 127 127 32 127 32 35 127 127 23 29 127 20 26 127 127 127 127 127 17 21 127 127 18 24 127 127 42 127 127 28 127 17 56 10 127 0 127 18 127 28 127 127 127 127 23 127 127 127 127 21 17 127 21 127 33 127 127 127 21
127 127 127 127 127 2 19 13 127 127 127 127 127 127 127 127 18 127 127 127 127 2 127 127 127 127 127 127 2 5 127 127 127 10 127 127 127 127 127 127 127 127 8 127 127 9 127 127 127 127 127 127 7 127 127 127 18 127 5 127 12 127 127 127 127 127 127 127 127 127 127 127 127 0 127 127 127 127 127 127 127 127 127 127 127 127 127 127 127 127 127 127 127 127 127 127
127 127 41 39 127 22 16 127 44 127 127 33 127 127 127 10 22 127 39 28 127 127 127 127 127 127 127 127 25 127 30 27 127 127 127 28 127 37 127 127 127 22 30 127 127 17 127 127 12 127 127 127 23 127 127 35 6 42 127 127 12 127 127 24 127 127 127 127 32 127 27 127 18 127 0 127 127 127 127 36 127 127 28 127 127 127 14 26 127 36 127 25 127 127 127 127
40 20 127 127 127 127 127 127 127 14 6 18 127 9 127 127 127 35 127 127 127 127 26 127 127 127 127 25 127 127 127 127 43 127 127 26 127 127 127 26 127 127 127 127 127 127 127 22 127 127 127 33 127 127 127 127 127 127 127 26 127 127 13 127 8 127 127 127 127 127 127 127 127 127 127 0 127 127 127 127 23 20 127 127 127 17 127 127 127 127 127 33 127 127 4 22
12 127 127 127 127 127 127 127 127 127 127 127 127 127 19 127 127 127 127 127 18 127 127 127 127 127 8 127 127 127 17 127 19 127 10 127 5 127 127 22 7 127 127 127 127 127 13 127 127 11 127 127 127 127 127 12 127 127 127 127 127 127 127 127 127 1 18 127 20 127 21 127 28 127 127 127 0 127 127 127 127 127 127 127 127 127 127 31 127 22 127 127 127 127 127 127
127 25 127 127 127 127 127 127 127 28 127 127 127 127 127 127 127 19 127 127 127 127 25 39 31 8 127 31 127 127 127 127 127 127 127 127 127 127 127 127 127 36 127 65 127 127 127 31 127 127 127 13 127 127 53 127 127 127 127 127 127 127 37 127 127 127 127 33 127 127 127 51 127 127 127 127 127 0 127 23 23 127 39 43 17 34 127 127 50 127 41 33 127 127 127 127
127 127 21 127 6 127 26 23 127 127 127 127 33 127 127 127 127 127 39 14 127 127 127 127 127 127 127 127 127 24 127 23 127 19 127 127 127 127 46 127 127 127 34 127 25 127 127 127 127 127 35 127 23 14 127 127 127 8 127 127 127 14 127 31 127 127 127 127 127 50 127 127 127 127 127 127 127 127 0 127 127 127 127 127 127 127 127 127 127 127 127 127 20 26 127 127
127 127 127 127 127 127 127 127 127 127 127 24 127 127 127 34 127 7 29 127 127 127 14 28 16 23 127 127 127 127 127 127 127 127 127 42 127 26 127 127 127 15 127 127 127 127 127 127 27 127 127 29 127 127 40 127 127 127 127 127 127 127 127 30 127 127 127 19 127 127 127 127 127 127 36 127 127 23 127 0 17 127 17 127 9 24 26 127 127 127 27 13 127 127 127 127
127 17 127 127 127 127 127 127 127 12 25 12 127 30 127 127 127 12 127 127 127 127 5 45 127 17 127 28 127 127 127 127 127 127 127 127 127 127 127 127 127 21 127 127 127 127 127 25 127 127 127 19 127 127 127 127 127 127 127 127 127 127 25 127 24 127 127 127 127 127 127 127 127 127 127 23 127 23 127 17 0 31 127 127 21 12 27 127 127 127 127 16 127 127 27 127
127 127 127 127 127 127 127 127 127 29 26 19 127 15 127 23 127 127 127 127 127 127 30 127 127 127 127 127 127 127 127 127 34 127 127 6 127 127 127 17 127 31 127 127 127 127 127 127 25 127 127 127 127 127 127 127 127 127 127 6 127 127 127 127 12 127 127 127 11 127 15 127 23 127 127 20 127 127 127 127 31 0 127 127 127 19 24 127 127 127 127 29 127 127 23 2
127 127 30 127 127 127 26 127 127 127 127 34 127 127 127 31 127 24 15 127 127 127 28 24 15 127 127 127 127 127 127 21 127 127 127 127 127 13 127 127 127 15 127 127 127 127 127 127 24 127 127 127 127 127 127 127 127 127 127 127 127 127 127 13 127 127 127 15 127 127 127 127 127 127 28 127 127 39 127 17 127 127 0 22 22 127 24 127 23 127 19 19 127 127 127 127
127 127 28 127 127 127 127 127 127 127 127 127 30 127 127 127 127 35 10 127 127 127 127 6 14 127 127 127 127 127 127 127 127 127 127 127 127 11 127 127 127 127 127 23 127 127 127 127 127 127 28 127 127 127 11 127 127 127 127 127 127 127 127 26 127 127 127 11 127 127 127 8 127 127 127 127 127 43 127 127 127 127 22 0 28 127 127 127 7 127 2 127 127 26 127 127
127 127 127 127 127 127 127 127 127 127 127 31 127 127 127 127 127 10 127 127 127 127 19 25 15 19 127 42 127 127 127 127 127 127 127 127 127 28 127 127 127 23 127 127 127 127 127 127 127 127 127 26 127 127 39 127 127 127 127 127 127 127 127 35 127 127 127 17 127 127 127 36 127 127 127 127 127 17 127 9 21 127 22 28 0 127 35 127 127 127 26 22 127 127 127 127
127 22 127 127 127 127 127 127 127 14 21 1 127 20 127 127 127 21 127 127 127 127 11 127 127 28 127 32 127 127 127 127 127 127 127 22 127 127 127 34 127 21 127 127 127 127 127 29 127 127 127 29 127 127 127 127 127 127 127 127 127 127 24 127 14 127 127 127 127 127 127 127 127 127 127 17 127 34 127 24 12 19 127 127 127 0 21 127 127 127 127 16 127 127 21 21
127 127 127 127 127 127 27 127 127 127 127 20 127 36 127 9 33 28 127 127 127 127 23 127 36 127 127 127 127 127 29 127 127 127 127 21 127 36 127 127 127 12 127 127 127 127 127 127 2 127 127 127 127 127 127 127 127 127 127 25 127 127 127 27 30 127 127 127 27 127 25 127 21 127 14 127 127 127 127 26 27 24 24 127 35 21 0 127 127 127 127 13 127 127 127 25
127 127 127 14 127 127 36 127 20 127 127 127 127 127 127 27 7 127 127 127 24 127 127 127 127 127 127 127 23 127 24 127 127 127 35 33 27 127 127 127 28 127 23 127 39 18 127 127 34 23 127 127 127 127 127 20 25 127 127 127 127 127 127 127 127 127 21 127 31 40 24 127 17 127 26 127 31 127 127 127 127 127 127 127 127 127 127 0 127 11 127 127 127 127 127 127
127 127 22 127 127 127 127 127 127 127 127 127 23 127 127 127 127 127 8 127 127 127 127 13 20 127 127 127 127 127 127 26 127 127 127 127 127 11 127 127 127 127 127 17 127 127 127 127 127 127 21 127 127 127 8 127 127 35 127 127 127 127 127 24 127 127 127 17 127 127 127 3 127 127 127 127 127 50 127 127 127 127 23 7 127 127 127 127 0 127 8 127 127 19 127 127
127 127 127 5 127 127 127 127 21 127 127 127 127 127 41 127 18 127 127 127 13 127 127 127 127 127 127 127 127 127 22 127 127 127 29 127 18 127 127 127 18 127 34 127 127 127 127 127 127 13 127 127 127 127 127 13 127 127 127 127 127 127 127 127 127 22 9 127 127 46 23 127 21 127 36 127 22 127 127 127 127 127 127 127 127 127 127 11 127 0 127 127 127 127 127 127
127 127 28 127 127 127 40 127 127 127 127 127 127 127 127 127 127 127 9 127 127 127 127 6 12 127 127 127 127 127 127 29 127 127 127 127 127 10 127 127 127 34 127 25 127 127 127 127 127 127 29 127 127 127 13 127 127 41 127 127 127 127 127 25 127 127 127 9 127 127 127 10 127 127 127 127 127 41 127 27 127 127 19 2 26 127 127 127 8 127 0 127 127 27 127 127
127 127 127 127 127 127 127 127 127 26 127 15 127 127 127 22 127 15 127 127 127 127 12 39 27 30 127 127 127 127 127 127 127 127 127 29 127 32 127 127 127 5 127 127 127 127 127 127 14 127 127 34 127 127 127 127 127 127 127 127 127 127 127 28 29 127 127 29 127 127 127 127 33 127 25 33 127 33 127 13 16 29 19 127 22 16 13 127 127 127 127 0 127 127 127 31
127 127 127 127 26 127 127 5 41 127 127 127 53 127 127 127 127 127 127 16 127 127 127 127 127 127 127 127 18 13 127 127 127 10 127 127 127 127 28 127 127 127 18 127 5 127 127 127 127 127 127 127 16 9 127 127 127 28 17 127 127 7 127 127 127 127 127 127 127 30 127 127 127 127 127 127 127 127 20 127 127 127 127 127 127 127 127 127 127 127 127 127 0 127 127 127
127 127 6 127 20 127 33 127 127 127 127 127 11 127 127 127 127 127 20 32 127 127 127 32 127 127 127 127 127 127 127 20 127 127 127 127 127 22 72 127 127 127 127 19 127 127 127 127 127 127 12 127 127 127 23 127 127 17 127 127 127 127 127 25 127 127 127 34 127 127 127 20 127 127 127 127 127 127 26 127 127 127 127 26 127 127 127 127 19 127 27 127 127 0 127 127
40 22 127 127 127 127 127 127 127 17 5 22 127 8 43 127 127 127 127 127 127 127 127 127 127 127 40 25 127 127 127 127 42 127 127 28 127 127 127 26 127 127 127 127 127 127 35 22 127 127 127 127 127 127 127 127 127 127 127 28 127 127 13 127 11 48 127 127 32 127 127 127 127 127 127 4 127 127 127 127 27 23 127 127 127 21 127 127 127 127 127 127 127 127 0 24
26 127 127 127 127 127 127 127 127 127 28 21 127 16 127 23 127 127 127 127 127 127 127 127 127 127 127 127 127 127 15 127 32 127 20 5 127 127 127 15 127 127 127 127 127 127 19 127 127 127 127 127 127 127 127 127 127 127 127 4 127 127 35 127 14 127 127 127 8 127 14 127 21 127 127 22 127 127 127 127 127 2 127 127 127 21 25 127 127 127 127 31 127 127 24 0
EOF
